[1580, 1628, 1408, 1298, 1298, 1170, 1170, 1062, 976, 960, 944, 882, 798, 798, 812, 744, 744, 720, 650, 496, 496, 496, 496, 496, 496, 496, 496, 472, 472, 432, 432, 432, 448, 448, 448, 432, 432, 426, 426, 348, 348, 342, 342, 342, 342, 342, 342, 336, 336, 336, 256, 256, 256, 252, 252, 252, 240, 240, 240, 240, 240, 240, 240, 240, 240, 240, 240, 240, 240, 240, 240, 240, 240, 240, 240, 240, 240, 240, 240, 240, 240, 240, 240, 240, 240, 240, 240, 240, 240, 240, 240, 240, 240, 240, 240, 240, 240, 240, 240, 240, 240, 240, 240, 240, 240, 240, 240, 240, 240, 240, 240, 240, 240, 240, 240, 240, 240, 240, 240, 240, 240, 240, 240, 240, 240, 240, 240, 240, 240, 240, 240, 240, 240, 240, 240, 240, 240, 240, 240, 240, 240, 240, 240, 240, 240, 240, 240, 240, 240, 240, 240, 240, 240, 240, 240, 240, 240, 240, 240, 240, 240, 240, 240, 240, 240, 240, 240, 240, 240, 240, 240, 240, 240, 240, 122, 122, 122, 122, 122, 120, 122, 120, 120, 120, 120, 120, 120, 118, 118, 118, 118, 118, 118, 118, 118, 118, 118, 118, 118, 118]